N = 10;
M = 3;
E = 24;
l = [500, 600, 300];
p = [1, 2, 2, 1, 3, 2, 1, 2];
from = [9, 9, 9, 9, 9, 9, 9, 9, 1, 1, 1, 2, 2, 3, 4, 4, 5, 5, 6, 6, 7, 7, 7, 8];
to =   [1, 2, 3, 4, 5, 6, 7, 8, 2, 8, 10, 1, 10, 10, 2, 10, 6, 10, 4, 10, 8, 5, 10, 10];
w =    [7, 3, 2, 1, 2, 2, 6, 1, 4, 5, 7, 4, 3, 2, 6, 1, 2, 2, 1, 2, 2, 3, 6, 1];
